NAME : traveling-santa-2018-prime-paths.28303.tour
COMMENT : Length = 28303
COMMENT : Found by LKH [Keld Helsgaun] Sun Jun 12 20:00:08 2022
TYPE : TOUR
DIMENSION : 100
TOUR_SECTION
1
81
7
96
43
52
51
28
56
14
25
53
32
63
15
39
33
93
90
73
19
27
54
94
47
66
35
61
79
55
71
21
37
3
92
45
22
88
62
95
12
42
85
68
100
4
30
58
89
50
36
38
75
23
9
69
86
16
57
49
84
20
70
64
26
18
13
67
60
83
40
97
72
91
80
8
17
59
77
76
2
82
74
31
65
5
99
98
6
11
78
41
34
10
48
29
46
44
24
87
-1
EOF
